12
12
0 146 52 106 7 48 124 47 36 143 49 64
16
0 27 127 31 88 148 62 123 19 107 11 126 63 90 32 131
17
0 112 94 95 59 92 37 98 100 91 16 141 44 119 14 140 38
12
0 132 1 122 51 9 103 71 135 35 136 65
10
0 69 101 70 10 108 30 20 128 66
12
0 53 105 26 149 21 73 110 4 139 39 67
15
0 40 58 137 2 115 145 41 22 133 74 72 75 56 23
12
0 89 18 60 118 5 84 83 114 8 82 46
15
0 111 50 102 33 81 120 34 78 129 79 3 77 116 76
14
0 147 6 96 99 104 93 85 61 86 113 17 125 45
16
0 28 138 12 109 80 150 68 121 29 24 134 54 130 55 25
11
0 13 117 97 87 144 57 15 43 142 42
